50 8
801 774
590 967
549 414
489 804
493 665
767 638
459 275
548 548
777 555
241 699
510 935
531 405
527 816
517 537
450 348
238 667
573 497
585 834
763 515
386 208
562 327
525 689
555 537
722 343
171 923
407 160
505 835
536 802
605 536
688 660
245 801
745 794
901 750
614 511
556 355
852 759
909 628
567 691
672 812
593 877
574 266
205 834
788 485
877 726
906 500
557 681
674 657
363 205
259 705
724 287
